NAME: Taillard-75A
BEST_KNOWN: 1618.36
COMMENT: 1618.360000
DIMENSION: 76
CAPACITY: 1445
EDGE_WEIGHT_FORMAT: FUNCTION
EDGE_WEIGHT_TYPE: EXACT_2D
NODE_COORD_SECTION
1 0.00000 0.00000
2 35.00000 -56.00000
3 72.00000 -58.00000
4 70.00000 -66.00000
5 45.00000 -40.00000
6 39.00000 -40.00000
7 60.00000 -50.00000
8 42.00000 -59.00000
9 31.00000 -46.00000
10 44.00000 -58.00000
11 45.00000 -67.00000
12 69.00000 -46.00000
13 24.00000 0.00000
14 12.00000 -4.00000
15 1.00000 -21.00000
16 3.00000 29.00000
17 19.00000 -13.00000
18 13.00000 -14.00000
19 25.00000 11.00000
20 24.00000 23.00000
21 3.00000 7.00000
22 23.00000 19.00000
23 2.00000 -7.00000
24 5.00000 23.00000
25 32.00000 5.00000
26 14.00000 25.00000
27 -16.00000 -4.00000
28 24.00000 17.00000
29 0.00000 -7.00000
30 -74.00000 -22.00000
31 -64.00000 -24.00000
32 -71.00000 -19.00000
33 -91.00000 -15.00000
34 -65.00000 -14.00000
35 -91.00000 -26.00000
36 -76.00000 -7.00000
37 -66.00000 -4.00000
38 -87.00000 -10.00000
39 -73.00000 -8.00000
40 -81.00000 -1.00000
41 -82.00000 -24.00000
42 -87.00000 -25.00000
43 -76.00000 -25.00000
44 -75.00000 -6.00000
45 -70.00000 -3.00000
46 -64.00000 -22.00000
47 -66.00000 -5.00000
48 -72.00000 -10.00000
49 -89.00000 -3.00000
50 -86.00000 -3.00000
51 -57.00000 -9.00000
52 -22.00000 -36.00000
53 -44.00000 19.00000
54 -21.00000 6.00000
55 -49.00000 -4.00000
56 -68.00000 -7.00000
57 -42.00000 11.00000
58 -69.00000 3.00000
59 -49.00000 9.00000
60 -68.00000 -19.00000
61 -57.00000 -7.00000
62 -61.00000 -34.00000
63 -36.00000 16.00000
64 -56.00000 2.00000
65 -67.00000 0.00000
66 -17.00000 -14.00000
67 -17.00000 -20.00000
68 -28.00000 -26.00000
69 -70.00000 -21.00000
70 -46.00000 -14.00000
71 -52.00000 36.00000
72 -33.00000 62.00000
73 -53.00000 49.00000
74 -39.00000 59.00000
75 33.00000 73.00000
76 38.00000 88.00000
DEMAND_SECTION
1 0
2 50
3 50
4 170
5 297
6 9
7 630
8 179
9 179
10 216
11 4
12 9
13 154
14 117
15 63
16 436
17 905
18 14
19 3
20 10
21 166
22 211
23 8
24 25
25 139
26 213
27 758
28 429
29 5
30 136
31 501
32 93
33 21
34 169
35 22
36 3
37 271
38 433
39 3
40 1079
41 233
42 11
43 10
44 78
45 63
46 4
47 59
48 8
49 34
50 234
51 30
52 40
53 123
54 7
55 33
56 369
57 11
58 23
59 208
60 4
61 8
62 36
63 504
64 16
65 574
66 19
67 235
68 445
69 6
70 43
71 210
72 268
73 410
74 124
75 11
76 1085
DEPOT_SECTION
1
-1
EOF
